c Generated with `cnfgen`
c (C) 2012-2019 Massimo Lauria <massimo.lauria@uniroma1.it>
c https://massimolauria.net/cnfgen
c
c COMMAND LINE: cnfgen --seed 1 -o ./tseitin/tseitin.grid5.s1.cnf tseitin --grid 5 5 --savegraph ./tseitin/tseitin.grid5.s1.graph --graphformat dot --charge randomeven
c
p cnf 40 128
1 2 0
-1 -2 0
1 3 4 0
1 -3 -4 0
-1 3 -4 0
-1 -3 4 0
3 5 -6 0
3 -5 6 0
-3 5 6 0
-3 -5 -6 0
5 7 -8 0
5 -7 8 0
-5 7 8 0
-5 -7 -8 0
7 9 0
-7 -9 0
2 10 11 0
2 -10 -11 0
-2 10 -11 0
-2 -10 11 0
4 10 12 13 0
4 10 -12 -13 0
4 -10 12 -13 0
4 -10 -12 13 0
-4 10 12 -13 0
-4 10 -12 13 0
-4 -10 12 13 0
-4 -10 -12 -13 0
6 12 14 -15 0
6 12 -14 15 0
6 -12 14 15 0
6 -12 -14 -15 0
-6 12 14 15 0
-6 12 -14 -15 0
-6 -12 14 -15 0
-6 -12 -14 15 0
8 14 16 -17 0
8 14 -16 17 0
8 -14 16 17 0
8 -14 -16 -17 0
-8 14 16 17 0
-8 14 -16 -17 0
-8 -14 16 -17 0
-8 -14 -16 17 0
9 16 -18 0
9 -16 18 0
-9 16 18 0
-9 -16 -18 0
11 19 -20 0
11 -19 20 0
-11 19 20 0
-11 -19 -20 0
13 19 21 -22 0
13 19 -21 22 0
13 -19 21 22 0
13 -19 -21 -22 0
-13 19 21 22 0
-13 19 -21 -22 0
-13 -19 21 -22 0
-13 -19 -21 22 0
15 21 23 -24 0
15 21 -23 24 0
15 -21 23 24 0
15 -21 -23 -24 0
-15 21 23 24 0
-15 21 -23 -24 0
-15 -21 23 -24 0
-15 -21 -23 24 0
17 23 25 -26 0
17 23 -25 26 0
17 -23 25 26 0
17 -23 -25 -26 0
-17 23 25 26 0
-17 23 -25 -26 0
-17 -23 25 -26 0
-17 -23 -25 26 0
18 25 -27 0
18 -25 27 0
-18 25 27 0
-18 -25 -27 0
20 28 -29 0
20 -28 29 0
-20 28 29 0
-20 -28 -29 0
22 28 30 31 0
22 28 -30 -31 0
22 -28 30 -31 0
22 -28 -30 31 0
-22 28 30 -31 0
-22 28 -30 31 0
-22 -28 30 31 0
-22 -28 -30 -31 0
24 30 32 33 0
24 30 -32 -33 0
24 -30 32 -33 0
24 -30 -32 33 0
-24 30 32 -33 0
-24 30 -32 33 0
-24 -30 32 33 0
-24 -30 -32 -33 0
26 32 34 -35 0
26 32 -34 35 0
26 -32 34 35 0
26 -32 -34 -35 0
-26 32 34 35 0
-26 32 -34 -35 0
-26 -32 34 -35 0
-26 -32 -34 35 0
27 34 36 0
27 -34 -36 0
-27 34 -36 0
-27 -34 36 0
29 37 0
-29 -37 0
31 37 38 0
31 -37 -38 0
-31 37 -38 0
-31 -37 38 0
33 38 39 0
33 -38 -39 0
-33 38 -39 0
-33 -38 39 0
35 39 40 0
35 -39 -40 0
-35 39 -40 0
-35 -39 40 0
36 -40 0
-36 40 0
